0 0 0 0
0 1 0 0
0 2 0 0
0 3 1 0
0 4 1 1
0 5 0 7
0 6 0 6
0 7 0 10
0 8 2 1
0 9 0 7
0 10 0 11
0 11 0 10
0 12 0 10
0 13 0 7
0 14 0 11
0 15 1 12
0 16 0 13
0 17 0 14
0 18 0 11
0 19 0 22
0 20 0 10
0 21 2 14
0 22 1 12
0 23 1 15
0 24 0 23
0 25 1 12
0 26 0 15
0 27 2 18
0 28 0 25
0 29 0 21
0 30 0 28
0 31 0 29
